p edge 1325 1275
e 1 2
e 1 3
e 1 4
e 1 5
e 1 6
e 1 7
e 1 8
e 1 9
e 1 10
e 1 11
e 1 12
e 1 13
e 1 14
e 1 15
e 1 16
e 1 17
e 1 18
e 1 19
e 1 20
e 1 21
e 1 22
e 1 23
e 1 24
e 1 25
e 1 26
e 1 27
e 1 28
e 1 29
e 1 30
e 1 31
e 1 32
e 1 33
e 1 34
e 1 35
e 1 36
e 1 37
e 1 38
e 39 40
e 39 41
e 39 42
e 39 43
e 39 44
e 39 45
e 39 46
e 39 47
e 39 48
e 39 49
e 39 50
e 39 51
e 39 52
e 39 53
e 39 54
e 39 55
e 39 56
e 39 57
e 39 58
e 39 59
e 39 60
e 39 61
e 39 62
e 39 63
e 39 64
e 39 65
e 39 66
e 39 67
e 39 68
e 39 69
e 39 70
e 39 71
e 39 72
e 39 73
e 39 74
e 39 75
e 39 76
e 39 77
e 78 79
e 78 80
e 78 81
e 78 82
e 78 83
e 78 84
e 78 85
e 78 86
e 78 87
e 78 88
e 78 89
e 78 90
e 78 91
e 78 92
e 78 93
e 78 94
e 78 95
e 78 96
e 78 97
e 78 98
e 78 99
e 78 100
e 78 101
e 78 102
e 78 103
e 78 104
e 78 105
e 78 106
e 107 108
e 107 109
e 107 110
e 107 111
e 107 112
e 107 113
e 107 114
e 107 115
e 107 116
e 107 117
e 107 118
e 107 119
e 107 120
e 107 121
e 107 122
e 107 123
e 107 124
e 107 125
e 107 126
e 107 127
e 107 128
e 107 129
e 107 130
e 107 131
e 107 132
e 107 133
e 107 134
e 107 135
e 107 136
e 107 137
e 107 138
e 107 139
e 107 140
e 107 141
e 107 142
e 107 143
e 107 144
e 107 145
e 107 146
e 107 147
e 148 149
e 148 150
e 148 151
e 148 152
e 148 153
e 148 154
e 148 155
e 148 156
e 148 157
e 148 158
e 148 159
e 148 160
e 148 161
e 148 162
e 148 163
e 148 164
e 148 165
e 148 166
e 148 167
e 148 168
e 148 169
e 148 170
e 148 171
e 148 172
e 148 173
e 174 175
e 174 176
e 174 177
e 174 178
e 174 179
e 174 180
e 174 181
e 174 182
e 174 183
e 174 184
e 174 185
e 174 186
e 174 187
e 174 188
e 174 189
e 174 190
e 174 191
e 174 192
e 174 193
e 194 195
e 194 196
e 194 197
e 194 198
e 194 199
e 194 200
e 194 201
e 194 202
e 194 203
e 194 204
e 194 205
e 194 206
e 194 207
e 208 209
e 208 210
e 208 211
e 208 212
e 208 213
e 208 214
e 208 215
e 208 216
e 208 217
e 208 218
e 208 219
e 208 220
e 208 221
e 208 222
e 208 223
e 208 224
e 208 225
e 208 226
e 208 227
e 208 228
e 208 229
e 208 230
e 208 231
e 208 232
e 208 233
e 208 234
e 208 235
e 208 236
e 208 237
e 208 238
e 208 239
e 208 240
e 208 241
e 208 242
e 208 243
e 208 244
e 208 245
e 208 246
e 208 247
e 248 249
e 248 250
e 248 251
e 248 252
e 248 253
e 248 254
e 248 255
e 248 256
e 248 257
e 248 258
e 248 259
e 260 261
e 260 262
e 260 263
e 260 264
e 260 265
e 260 266
e 260 267
e 260 268
e 260 269
e 260 270
e 260 271
e 260 272
e 260 273
e 260 274
e 260 275
e 260 276
e 260 277
e 260 278
e 260 279
e 260 280
e 260 281
e 260 282
e 260 283
e 260 284
e 285 286
e 285 287
e 285 288
e 285 289
e 285 290
e 285 291
e 285 292
e 285 293
e 285 294
e 285 295
e 285 296
e 285 297
e 285 298
e 285 299
e 285 300
e 285 301
e 285 302
e 285 303
e 285 304
e 285 305
e 285 306
e 285 307
e 285 308
e 285 309
e 310 311
e 310 312
e 310 313
e 310 314
e 310 315
e 310 316
e 310 317
e 310 318
e 310 319
e 310 320
e 310 321
e 310 322
e 323 324
e 323 325
e 323 326
e 323 327
e 323 328
e 323 329
e 323 330
e 323 331
e 323 332
e 323 333
e 323 334
e 323 335
e 323 336
e 323 337
e 323 338
e 339 340
e 339 341
e 339 342
e 339 343
e 339 344
e 339 345
e 339 346
e 339 347
e 339 348
e 339 349
e 339 350
e 339 351
e 339 352
e 339 353
e 339 354
e 339 355
e 339 356
e 339 357
e 339 358
e 339 359
e 339 360
e 339 361
e 339 362
e 339 363
e 339 364
e 339 365
e 339 366
e 339 367
e 339 368
e 339 369
e 339 370
e 339 371
e 339 372
e 339 373
e 339 374
e 339 375
e 339 376
e 339 377
e 339 378
e 339 379
e 380 381
e 380 382
e 380 383
e 380 384
e 380 385
e 380 386
e 380 387
e 380 388
e 380 389
e 380 390
e 380 391
e 380 392
e 380 393
e 380 394
e 395 396
e 395 397
e 395 398
e 395 399
e 395 400
e 395 401
e 395 402
e 395 403
e 395 404
e 395 405
e 395 406
e 395 407
e 395 408
e 395 409
e 395 410
e 395 411
e 395 412
e 395 413
e 395 414
e 395 415
e 395 416
e 395 417
e 395 418
e 395 419
e 395 420
e 395 421
e 395 422
e 395 423
e 395 424
e 425 426
e 425 427
e 425 428
e 425 429
e 425 430
e 425 431
e 425 432
e 425 433
e 425 434
e 425 435
e 425 436
e 425 437
e 425 438
e 425 439
e 425 440
e 425 441
e 425 442
e 425 443
e 425 444
e 425 445
e 425 446
e 425 447
e 425 448
e 425 449
e 425 450
e 425 451
e 425 452
e 425 453
e 425 454
e 425 455
e 456 457
e 456 458
e 456 459
e 456 460
e 456 461
e 456 462
e 456 463
e 456 464
e 456 465
e 456 466
e 456 467
e 456 468
e 456 469
e 456 470
e 456 471
e 456 472
e 456 473
e 456 474
e 456 475
e 456 476
e 456 477
e 456 478
e 456 479
e 456 480
e 456 481
e 456 482
e 456 483
e 456 484
e 456 485
e 456 486
e 456 487
e 488 489
e 488 490
e 488 491
e 488 492
e 488 493
e 488 494
e 488 495
e 488 496
e 488 497
e 488 498
e 488 499
e 500 501
e 500 502
e 500 503
e 500 504
e 500 505
e 500 506
e 500 507
e 500 508
e 500 509
e 500 510
e 500 511
e 500 512
e 500 513
e 500 514
e 500 515
e 500 516
e 500 517
e 500 518
e 500 519
e 500 520
e 500 521
e 500 522
e 500 523
e 500 524
e 500 525
e 500 526
e 500 527
e 500 528
e 500 529
e 500 530
e 500 531
e 500 532
e 500 533
e 500 534
e 500 535
e 500 536
e 500 537
e 500 538
e 500 539
e 500 540
e 541 542
e 541 543
e 541 544
e 541 545
e 541 546
e 541 547
e 541 548
e 541 549
e 541 550
e 541 551
e 541 552
e 541 553
e 541 554
e 541 555
e 541 556
e 541 557
e 541 558
e 541 559
e 541 560
e 541 561
e 541 562
e 541 563
e 541 564
e 541 565
e 541 566
e 541 567
e 541 568
e 541 569
e 541 570
e 541 571
e 541 572
e 541 573
e 541 574
e 541 575
e 541 576
e 541 577
e 541 578
e 579 580
e 579 581
e 579 582
e 579 583
e 579 584
e 579 585
e 579 586
e 579 587
e 579 588
e 579 589
e 579 590
e 579 591
e 579 592
e 579 593
e 579 594
e 579 595
e 579 596
e 579 597
e 579 598
e 579 599
e 579 600
e 579 601
e 579 602
e 579 603
e 579 604
e 579 605
e 579 606
e 579 607
e 579 608
e 579 609
e 579 610
e 611 612
e 611 613
e 611 614
e 611 615
e 611 616
e 611 617
e 611 618
e 611 619
e 611 620
e 611 621
e 611 622
e 611 623
e 611 624
e 625 626
e 625 627
e 625 628
e 625 629
e 625 630
e 625 631
e 625 632
e 625 633
e 625 634
e 625 635
e 625 636
e 625 637
e 625 638
e 625 639
e 625 640
e 625 641
e 625 642
e 625 643
e 625 644
e 625 645
e 625 646
e 625 647
e 625 648
e 649 650
e 649 651
e 649 652
e 649 653
e 649 654
e 649 655
e 649 656
e 649 657
e 649 658
e 649 659
e 649 660
e 649 661
e 649 662
e 649 663
e 649 664
e 649 665
e 649 666
e 649 667
e 649 668
e 649 669
e 649 670
e 649 671
e 649 672
e 649 673
e 649 674
e 649 675
e 649 676
e 649 677
e 649 678
e 679 680
e 679 681
e 679 682
e 679 683
e 679 684
e 679 685
e 679 686
e 679 687
e 679 688
e 679 689
e 679 690
e 679 691
e 679 692
e 679 693
e 679 694
e 679 695
e 679 696
e 679 697
e 679 698
e 679 699
e 679 700
e 679 701
e 679 702
e 679 703
e 679 704
e 679 705
e 679 706
e 679 707
e 679 708
e 679 709
e 679 710
e 679 711
e 679 712
e 679 713
e 714 715
e 714 716
e 714 717
e 714 718
e 714 719
e 714 720
e 714 721
e 714 722
e 714 723
e 714 724
e 725 726
e 725 727
e 725 728
e 725 729
e 725 730
e 725 731
e 725 732
e 725 733
e 725 734
e 725 735
e 725 736
e 725 737
e 725 738
e 725 739
e 725 740
e 725 741
e 742 743
e 742 744
e 742 745
e 742 746
e 742 747
e 742 748
e 742 749
e 742 750
e 742 751
e 742 752
e 742 753
e 742 754
e 742 755
e 742 756
e 742 757
e 742 758
e 742 759
e 742 760
e 742 761
e 742 762
e 742 763
e 742 764
e 742 765
e 742 766
e 742 767
e 742 768
e 742 769
e 742 770
e 771 772
e 771 773
e 771 774
e 771 775
e 771 776
e 771 777
e 771 778
e 771 779
e 771 780
e 771 781
e 771 782
e 771 783
e 771 784
e 771 785
e 771 786
e 771 787
e 771 788
e 771 789
e 771 790
e 771 791
e 771 792
e 771 793
e 771 794
e 771 795
e 771 796
e 771 797
e 771 798
e 771 799
e 771 800
e 771 801
e 771 802
e 771 803
e 771 804
e 771 805
e 771 806
e 771 807
e 808 809
e 808 810
e 808 811
e 808 812
e 808 813
e 808 814
e 808 815
e 808 816
e 808 817
e 808 818
e 808 819
e 808 820
e 808 821
e 808 822
e 808 823
e 824 825
e 824 826
e 824 827
e 824 828
e 824 829
e 824 830
e 824 831
e 824 832
e 824 833
e 824 834
e 824 835
e 824 836
e 824 837
e 824 838
e 824 839
e 824 840
e 824 841
e 824 842
e 824 843
e 824 844
e 824 845
e 824 846
e 824 847
e 824 848
e 824 849
e 824 850
e 824 851
e 824 852
e 824 853
e 824 854
e 824 855
e 824 856
e 824 857
e 824 858
e 824 859
e 824 860
e 824 861
e 824 862
e 824 863
e 864 865
e 864 866
e 864 867
e 864 868
e 864 869
e 864 870
e 864 871
e 864 872
e 864 873
e 864 874
e 864 875
e 864 876
e 864 877
e 864 878
e 864 879
e 864 880
e 864 881
e 864 882
e 864 883
e 884 885
e 884 886
e 884 887
e 884 888
e 884 889
e 884 890
e 884 891
e 884 892
e 884 893
e 884 894
e 884 895
e 896 897
e 896 898
e 896 899
e 896 900
e 896 901
e 896 902
e 896 903
e 896 904
e 896 905
e 896 906
e 896 907
e 896 908
e 896 909
e 896 910
e 896 911
e 896 912
e 896 913
e 896 914
e 896 915
e 916 917
e 916 918
e 916 919
e 916 920
e 916 921
e 916 922
e 916 923
e 916 924
e 916 925
e 916 926
e 916 927
e 916 928
e 916 929
e 916 930
e 916 931
e 916 932
e 916 933
e 916 934
e 916 935
e 916 936
e 916 937
e 916 938
e 916 939
e 940 941
e 940 942
e 940 943
e 940 944
e 940 945
e 940 946
e 940 947
e 940 948
e 940 949
e 940 950
e 940 951
e 940 952
e 940 953
e 940 954
e 940 955
e 940 956
e 940 957
e 940 958
e 940 959
e 940 960
e 940 961
e 940 962
e 940 963
e 940 964
e 940 965
e 940 966
e 967 968
e 967 969
e 967 970
e 967 971
e 967 972
e 967 973
e 967 974
e 967 975
e 967 976
e 967 977
e 967 978
e 967 979
e 967 980
e 967 981
e 967 982
e 967 983
e 967 984
e 967 985
e 967 986
e 967 987
e 967 988
e 967 989
e 967 990
e 991 992
e 991 993
e 991 994
e 991 995
e 991 996
e 991 997
e 991 998
e 991 999
e 991 1000
e 991 1001
e 991 1002
e 991 1003
e 991 1004
e 991 1005
e 991 1006
e 991 1007
e 991 1008
e 991 1009
e 991 1010
e 991 1011
e 991 1012
e 991 1013
e 1014 1015
e 1014 1016
e 1014 1017
e 1014 1018
e 1014 1019
e 1014 1020
e 1014 1021
e 1014 1022
e 1014 1023
e 1014 1024
e 1014 1025
e 1014 1026
e 1014 1027
e 1014 1028
e 1014 1029
e 1014 1030
e 1014 1031
e 1014 1032
e 1014 1033
e 1014 1034
e 1014 1035
e 1014 1036
e 1014 1037
e 1014 1038
e 1014 1039
e 1014 1040
e 1014 1041
e 1014 1042
e 1014 1043
e 1044 1045
e 1044 1046
e 1044 1047
e 1044 1048
e 1044 1049
e 1044 1050
e 1044 1051
e 1044 1052
e 1044 1053
e 1044 1054
e 1044 1055
e 1044 1056
e 1044 1057
e 1044 1058
e 1044 1059
e 1044 1060
e 1044 1061
e 1044 1062
e 1044 1063
e 1044 1064
e 1044 1065
e 1044 1066
e 1044 1067
e 1044 1068
e 1044 1069
e 1044 1070
e 1044 1071
e 1044 1072
e 1044 1073
e 1044 1074
e 1044 1075
e 1044 1076
e 1044 1077
e 1044 1078
e 1044 1079
e 1044 1080
e 1044 1081
e 1044 1082
e 1083 1084
e 1083 1085
e 1083 1086
e 1083 1087
e 1083 1088
e 1083 1089
e 1083 1090
e 1083 1091
e 1083 1092
e 1083 1093
e 1083 1094
e 1083 1095
e 1083 1096
e 1083 1097
e 1083 1098
e 1083 1099
e 1083 1100
e 1083 1101
e 1083 1102
e 1083 1103
e 1083 1104
e 1083 1105
e 1083 1106
e 1083 1107
e 1083 1108
e 1083 1109
e 1110 1111
e 1110 1112
e 1110 1113
e 1110 1114
e 1110 1115
e 1110 1116
e 1110 1117
e 1110 1118
e 1110 1119
e 1110 1120
e 1110 1121
e 1110 1122
e 1110 1123
e 1110 1124
e 1110 1125
e 1110 1126
e 1127 1128
e 1127 1129
e 1127 1130
e 1127 1131
e 1127 1132
e 1127 1133
e 1127 1134
e 1127 1135
e 1127 1136
e 1127 1137
e 1127 1138
e 1127 1139
e 1127 1140
e 1127 1141
e 1127 1142
e 1127 1143
e 1127 1144
e 1127 1145
e 1127 1146
e 1127 1147
e 1127 1148
e 1127 1149
e 1127 1150
e 1127 1151
e 1127 1152
e 1127 1153
e 1127 1154
e 1127 1155
e 1127 1156
e 1127 1157
e 1127 1158
e 1159 1160
e 1159 1161
e 1159 1162
e 1159 1163
e 1159 1164
e 1159 1165
e 1159 1166
e 1159 1167
e 1159 1168
e 1159 1169
e 1159 1170
e 1159 1171
e 1159 1172
e 1159 1173
e 1159 1174
e 1159 1175
e 1159 1176
e 1159 1177
e 1159 1178
e 1159 1179
e 1159 1180
e 1159 1181
e 1159 1182
e 1159 1183
e 1159 1184
e 1159 1185
e 1159 1186
e 1159 1187
e 1159 1188
e 1159 1189
e 1159 1190
e 1159 1191
e 1159 1192
e 1159 1193
e 1159 1194
e 1159 1195
e 1159 1196
e 1159 1197
e 1198 1199
e 1198 1200
e 1198 1201
e 1198 1202
e 1198 1203
e 1198 1204
e 1198 1205
e 1198 1206
e 1198 1207
e 1198 1208
e 1198 1209
e 1198 1210
e 1198 1211
e 1198 1212
e 1198 1213
e 1198 1214
e 1198 1215
e 1216 1217
e 1216 1218
e 1216 1219
e 1216 1220
e 1216 1221
e 1216 1222
e 1216 1223
e 1216 1224
e 1216 1225
e 1216 1226
e 1216 1227
e 1216 1228
e 1216 1229
e 1216 1230
e 1216 1231
e 1216 1232
e 1216 1233
e 1216 1234
e 1216 1235
e 1216 1236
e 1216 1237
e 1216 1238
e 1216 1239
e 1216 1240
e 1216 1241
e 1216 1242
e 1216 1243
e 1216 1244
e 1216 1245
e 1216 1246
e 1216 1247
e 1216 1248
e 1216 1249
e 1250 1251
e 1250 1252
e 1250 1253
e 1250 1254
e 1250 1255
e 1250 1256
e 1250 1257
e 1250 1258
e 1250 1259
e 1250 1260
e 1250 1261
e 1250 1262
e 1250 1263
e 1250 1264
e 1250 1265
e 1250 1266
e 1250 1267
e 1250 1268
e 1250 1269
e 1250 1270
e 1250 1271
e 1250 1272
e 1250 1273
e 1250 1274
e 1250 1275
e 1250 1276
e 1250 1277
e 1250 1278
e 1250 1279
e 1250 1280
e 1250 1281
e 1250 1282
e 1250 1283
e 1250 1284
e 1285 1286
e 1285 1287
e 1285 1288
e 1285 1289
e 1285 1290
e 1285 1291
e 1285 1292
e 1285 1293
e 1285 1294
e 1285 1295
e 1285 1296
e 1285 1297
e 1285 1298
e 1285 1299
e 1285 1300
e 1285 1301
e 1285 1302
e 1285 1303
e 1285 1304
e 1285 1305
e 1285 1306
e 1285 1307
e 1285 1308
e 1309 1310
e 1309 1311
e 1309 1312
e 1309 1313
e 1309 1314
e 1309 1315
e 1309 1316
e 1309 1317
e 1309 1318
e 1309 1319
e 1309 1320
e 1309 1321
e 1309 1322
e 1309 1323
e 1309 1324
e 1309 1325
